100
30
19
32
32
14
7
12
18
16
32
1
14
15
12
31
7
31
1
32
18
10
24
14
9
1
22
9
5
31
11
9
10
11
4
32
15
18
32
5
17
6
22
5
30
8
3
1
22
21
14
2
6
8
3
13
2
17
5
23
7
14
7
12
32
32
4
14
11
19
6
32
24
31
12
12
18
6
6
6
3
32
16
18
32
12
4
8
7
6
5
14
32
12
4
14
15
31
6
14
5
15